1 -1 -2 0
1 1 3 0
1 -1 4 0
1 -1 5 0
1 2 3 0
1 2 -5 0
1 2 -6 0
1 -7 8 0
1 7 9 0
1 7 -4 0
1 -7 10 0
1 7 11 0
1 -12 4 0
1 12 -13 0
1 12 5 0
1 4 14 0
1 4 -2 0
1 4 -15 0
1 -4 16 0
1 -4 17 0
1 4 -18 0
1 4 -7 0
1 -6 19 0
1 -6 14 0
1 6 20 0
1 -6 -21 0
1 -6 16 0
1 -6 17 0
1 6 7 0
1 -3 -14 0
1 -3 22 0
1 -3 -12 0
1 3 -2 0
1 -3 -23 0
1 -3 16 0
1 3 24 0
1 -3 5 0
1 5 14 0
1 5 25 0
1 -5 2 0
1 -5 3 0
1 -5 16 0
1 5 -26 0
1 -5 -24 0
1 -5 -7 0
1 -5 -1 0
1 -5 -27 0
1 18 8 0
1 18 9 0
1 -18 -4 0
1 18 13 0
1 -18 10 0
1 -18 6 0
1 21 -9 0
1 -21 -25 0
1 21 4 0
1 -21 -6 0
1 17 -8 0
1 -17 9 0
1 17 -20 0
1 -17 -28 0
1 17 -13 0
1 17 10 0
1 17 -29 0
1 -17 6 0
1 20 8 0
1 20 -4 0
1 -20 10 0
1 -20 -17 0
1 20 -30 0
1 20 6 0
1 -10 31 0
1 -10 -32 0
1 -10 20 0
1 10 12 0
1 -10 33 0
1 10 -34 0
1 10 -17 0
1 -10 -18 0
1 -9 31 0
1 9 32 0
1 -9 12 0
1 -9 -33 0
1 -9 35 0
1 9 -10 0
1 9 -17 0
1 -9 -7 0
1 -9 36 0
1 -13 21 0
1 13 -37 0
1 -8 -38 0
1 -8 39 0
1 8 -21 0
1 8 -12 0
1 8 -13 0
1 -8 17 0
1 8 -18 0
1 8 36 0
1 35 -32 0
1 35 -9 0
1 35 -40 0
1 35 10 0
1 -35 16 0
1 35 -29 0
1 -32 9 0
1 -32 40 0
1 -32 35 0
1 32 30 0
1 -41 31 0
1 -41 -9 0
1 41 28 0
1 -41 42 0
1 -41 29 0
1 41 -30 0
1 31 -9 0
1 31 -28 0
1 -31 40 0
1 -31 -41 0
1 31 10 0
1 -31 -30 0
1 -30 32 0
1 -30 20 0
1 -30 40 0
1 -30 -43 0
1 30 41 0
1 30 -35 0
1 -30 -17 0
1 40 31 0
1 40 -20 0
1 -40 41 0
1 40 17 0
1 40 30 0
1 29 20 0
1 -29 28 0
1 -29 44 0
1 -29 41 0
1 29 35 0
1 29 -45 0
1 29 46 0
1 29 -36 0
1 28 -31 0
1 28 -32 0
1 28 -20 0
1 28 47 0
1 -28 -43 0
1 -28 -44 0
1 28 17 0
1 -28 -29 0
1 28 36 0
1 48 49 0
1 -48 50 0
1 48 -51 0
1 -48 52 0
1 48 53 0
1 -54 55 0
1 54 -52 0
1 54 48 0
1 11 -49 0
1 11 -50 0
1 11 -56 0
1 11 57 0
1 11 52 0
1 -11 58 0
1 11 59 0
1 -11 -7 0
1 -11 60 0
1 -57 -49 0
1 -57 61 0
1 57 -56 0
1 57 12 0
1 -57 62 0
1 -57 59 0
1 50 -63 0
1 50 -64 0
1 -50 25 0
1 50 -54 0
1 -50 -52 0
1 50 26 0
1 -50 24 0
1 50 -11 0
1 52 -50 0
1 -52 63 0
1 -52 -22 0
1 -52 -25 0
1 -52 65 0
1 -52 26 0
1 -52 -48 0
1 -49 -63 0
1 49 -66 0
1 -49 51 0
1 -49 67 0
1 -49 -11 0
1 -49 -48 0
1 51 -49 0
1 -51 68 0
1 -51 -66 0
1 51 -57 0
1 -51 69 0
1 -51 70 0
1 -51 71 0
1 51 -11 0
1 -51 48 0
1 24 -61 0
1 24 -59 0
1 -24 -18 0
1 -24 -71 0
1 -25 50 0
1 25 56 0
1 -25 66 0
1 -25 -3 0
1 25 -52 0
1 -25 -58 0
1 -25 -24 0
1 25 5 0
1 26 -50 0
1 26 22 0
1 -26 61 0
1 26 -56 0
1 -26 -3 0
1 -26 -52 0
1 -26 -58 0
1 26 -17 0
1 -26 -72 0
1 -26 73 0
1 -26 5 0
1 22 59 0
1 -22 61 0
1 -22 -68 0
1 22 74 0
1 -22 75 0
1 -22 -3 0
1 -22 52 0
1 22 58 0
1 22 26 0
1 22 -5 0
1 -56 -76 0
1 -56 25 0
1 -56 57 0
1 -56 77 0
1 56 -26 0
1 -56 -24 0
1 59 -76 0
1 -59 -38 0
1 -59 -14 0
1 -59 -25 0
1 -59 56 0
1 59 57 0
1 -59 -77 0
1 59 -16 0
1 59 -26 0
1 -59 -78 0
1 -59 24 0
1 -61 76 0
1 61 -79 0
1 61 22 0
1 61 -80 0
1 61 -81 0
1 -61 58 0
1 61 -67 0
1 -58 -76 0
1 58 -79 0
1 58 -22 0
1 58 61 0
1 -58 57 0
1 -58 77 0
1 -58 81 0
1 -58 -67 0
1 -58 -26 0
1 58 -82 0
1 -58 -24 0
1 16 74 0
1 16 75 0
1 -16 3 0
1 16 -4 0
1 16 13 0
1 16 35 0
1 16 67 0
1 -16 -72 0
1 16 73 0
1 -14 8 0
1 14 63 0
1 14 -56 0
1 14 13 0
1 14 -59 0
1 14 72 0
1 14 -73 0
1 42 19 0
1 42 8 0
1 -42 38 0
1 42 -56 0
1 42 23 0
1 -42 -15 0
1 -42 -13 0
1 42 -41 0
1 42 81 0
1 -42 -27 0
1 -38 19 0
1 38 -8 0
1 -38 79 0
1 38 -56 0
1 38 74 0
1 38 15 0
1 -38 -13 0
1 -38 73 0
1 75 -14 0
1 -75 -22 0
1 75 83 0
1 75 -84 0
1 75 -33 0
1 75 16 0
1 -75 85 0
1 75 46 0
1 -73 -38 0
1 -73 75 0
1 -73 -83 0
1 73 86 0
1 -73 -16 0
1 -73 -26 0
1 73 85 0
1 73 -46 0
1 -73 36 0
1 74 -76 0
1 74 38 0
1 74 14 0
1 -74 -22 0
1 -74 87 0
1 -74 -88 0
1 74 42 0
1 -74 16 0
1 74 -26 0
1 -74 72 0
1 -74 -85 0
1 -72 -38 0
1 72 -22 0
1 72 -83 0
1 72 -88 0
1 -72 26 0
1 -72 89 0
1 -72 90 0
1 -33 8 0
1 -33 28 0
1 -33 75 0
1 -33 -36 0
1 -36 8 0
1 -36 19 0
1 -36 -9 0
1 -36 -28 0
1 -36 15 0
1 -36 -13 0
1 36 10 0
1 -36 29 0
1 -44 -19 0
1 -44 -39 0
1 44 88 0
1 -44 23 0
1 44 -15 0
1 44 29 0
1 44 -46 0
1 44 -27 0
1 46 -19 0
1 -46 -28 0
1 -46 -75 0
1 46 44 0
1 -46 23 0
1 46 15 0
1 -46 34 0
1 46 -27 0
1 -46 73 0
1 46 -90 0
1 -15 19 0
1 -15 -38 0
1 -15 43 0
1 -15 -44 0
1 15 -33 0
1 15 4 0
1 -15 -91 0
1 15 42 0
1 -15 92 0
1 15 -93 0
1 -15 -45 0
1 -15 46 0
1 15 -36 0
1 -19 -94 0
1 -19 -44 0
1 19 -33 0
1 19 -15 0
1 -19 -42 0
1 -19 -6 0
1 19 -92 0
1 19 -45 0
1 19 -46 0
1 19 36 0
1 23 -38 0
1 23 94 0
1 23 95 0
1 23 -44 0
1 -23 -3 0
1 23 42 0
1 -23 -96 0
1 23 85 0
1 23 -46 0
1 -23 27 0
1 -27 -94 0
1 27 -83 0
1 -27 -33 0
1 -27 -42 0
1 27 -92 0
1 27 -96 0
1 -27 85 0
1 27 36 0
1 -43 39 0
1 -43 28 0
1 43 15 0
1 -43 34 0
1 -43 -30 0
1 43 45 0
1 45 19 0
1 45 -39 0
1 45 97 0
1 45 28 0
1 -45 -43 0
1 45 -37 0
1 45 -29 0
1 45 -30 0
1 -98 19 0
1 98 39 0
1 98 47 0
1 98 -93 0
1 -98 95 0
1 -98 37 0
1 -98 99 0
1 -93 -19 0
1 -93 39 0
1 93 97 0
1 93 -47 0
1 -93 -15 0
1 -93 37 0
1 93 100 0
1 93 96 0
1 34 101 0
1 -34 -43 0
1 -34 -44 0
1 -34 -10 0
1 34 102 0
1 34 103 0
1 34 -93 0
1 34 -45 0
1 -34 46 0
1 -97 9 0
1 -97 104 0
1 97 -101 0
1 -97 98 0
1 97 43 0
1 97 -44 0
1 97 34 0
1 -97 -105 0
1 -97 -93 0
1 -97 -46 0
1 37 -39 0
1 -37 -106 0
1 -37 94 0
1 -37 -98 0
1 37 -44 0
1 37 -107 0
1 37 92 0
1 37 46 0
1 39 -8 0
1 -39 -94 0
1 39 98 0
1 -39 44 0
1 39 -92 0
1 39 93 0
1 39 45 0
1 -39 -46 0
1 101 108 0
1 101 100 0
1 101 105 0
1 101 99 0
1 105 -97 0
1 -105 47 0
1 -105 101 0
1 -105 108 0
1 105 -34 0
1 -105 -92 0
1 104 97 0
1 -104 47 0
1 -104 -106 0
1 104 -34 0
1 104 -100 0
1 -104 -99 0
1 102 97 0
1 -102 104 0
1 102 47 0
1 -102 100 0
1 -102 99 0
1 -99 101 0
1 99 108 0
1 -99 -98 0
1 -99 -109 0
1 99 -30 0
1 -99 93 0
1 -108 98 0
1 108 109 0
1 -108 102 0
1 108 -105 0
1 -108 -93 0
1 -100 110 0
1 100 -47 0
1 -100 98 0
1 100 -107 0
1 -100 -111 0
1 100 93 0
1 -47 112 0
1 -47 28 0
1 47 109 0
1 -47 -100 0
1 47 -107 0
1 47 102 0
1 47 105 0
1 -53 -113 0
1 -53 -114 0
1 -53 -55 0
1 -53 115 0
1 -55 114 0
1 -55 116 0
1 -55 117 0
1 -55 -118 0
1 -55 -53 0
1 60 113 0
1 60 -62 0
1 -60 -119 0
1 60 117 0
1 -60 118 0
1 -60 120 0
1 60 121 0
1 -62 -57 0
1 62 117 0
1 62 121 0
1 62 120 0
1 62 -60 0
1 -118 -122 0
1 -118 66 0
1 -118 62 0
1 118 55 0
1 -118 -70 0
1 118 123 0
1 -118 -60 0
1 -118 53 0
1 114 -124 0
1 -114 66 0
1 114 -125 0
1 -114 -70 0
1 -114 71 0
1 -117 126 0
1 -117 122 0
1 117 -127 0
1 -117 128 0
1 117 62 0
1 117 -129 0
1 117 130 0
1 117 53 0
1 113 122 0
1 113 131 0
1 113 127 0
1 113 -128 0
1 113 -62 0
1 -113 -117 0
1 -113 129 0
1 113 -130 0
1 113 -53 0
1 -71 49 0
1 -71 132 0
1 -71 -24 0
1 -71 120 0
1 71 130 0
1 66 -49 0
1 66 -114 0
1 -66 25 0
1 -66 128 0
1 66 119 0
1 66 120 0
1 -66 118 0
1 70 -133 0
1 -70 49 0
1 70 68 0
1 -70 -114 0
1 -70 -132 0
1 -70 -134 0
1 70 135 0
1 70 51 0
1 -70 -26 0
1 70 118 0
1 -70 -129 0
1 -70 120 0
1 -70 -136 0
1 68 127 0
1 -68 132 0
1 68 -121 0
1 -121 -119 0
1 -121 -137 0
1 121 67 0
1 -121 -70 0
1 -121 -60 0
1 -119 138 0
1 -119 63 0
1 -119 -66 0
1 -119 -62 0
1 119 -139 0
1 -119 -137 0
1 -119 67 0
1 119 -121 0
1 119 -70 0
1 -119 60 0
1 -120 122 0
1 120 66 0
1 120 -132 0
1 -120 140 0
1 120 -125 0
1 -120 71 0
1 -120 -141 0
1 132 138 0
1 132 142 0
1 -132 -122 0
1 -132 -66 0
1 -132 -62 0
1 -132 120 0
1 -132 140 0
1 -132 71 0
1 -132 60 0
1 -67 -133 0
1 -67 49 0
1 67 -63 0
1 67 -61 0
1 -67 -134 0
1 67 -135 0
1 -67 51 0
1 67 -58 0
1 -67 16 0
1 63 -49 0
1 63 -14 0
1 -63 61 0
1 -63 119 0
1 -63 -134 0
1 63 52 0
1 -63 -58 0
1 63 67 0
1 63 -121 0
1 63 136 0
1 -81 -79 0
1 81 143 0
1 -81 64 0
1 81 119 0
1 -81 135 0
1 81 -69 0
1 -81 121 0
1 79 133 0
1 79 -143 0
1 79 -142 0
1 79 -61 0
1 -79 119 0
1 79 -135 0
1 79 81 0
1 -79 136 0
1 133 76 0
1 -133 144 0
1 -133 145 0
1 -133 -88 0
1 133 135 0
1 133 -77 0
1 133 81 0
1 133 -67 0
1 -133 -70 0
1 -135 -79 0
1 -135 77 0
1 -135 -67 0
1 -135 -70 0
1 135 90 0
1 -136 138 0
1 -136 79 0
1 -136 -63 0
1 136 -68 0
1 -136 -134 0
1 136 -145 0
1 -136 -146 0
1 -136 -81 0
1 -136 -70 0
1 -136 147 0
1 136 148 0
1 134 63 0
1 134 149 0
1 134 -146 0
1 -134 137 0
1 -134 -81 0
1 -134 -136 0
1 -134 148 0
1 -77 -133 0
1 -77 143 0
1 -77 64 0
1 77 56 0
1 77 74 0
1 77 33 0
1 -77 -69 0
1 -77 58 0
1 -77 59 0
1 -76 -133 0
1 -76 -64 0
1 76 56 0
1 76 74 0
1 76 65 0
1 76 58 0
1 76 72 0
1 -76 36 0
1 -88 143 0
1 -88 64 0
1 88 -150 0
1 88 -74 0
1 88 -146 0
1 88 82 0
1 -88 78 0
1 -88 -72 0
1 -90 -143 0
1 -90 -64 0
1 -90 -80 0
1 90 -150 0
1 -90 -74 0
1 90 65 0
1 -90 72 0
1 -90 148 0
1 -64 -76 0
1 -64 79 0
1 64 -151 0
1 -64 152 0
1 -64 81 0
1 64 -65 0
1 64 -153 0
1 -64 85 0
1 65 76 0
1 65 -79 0
1 -65 64 0
1 -65 -95 0
1 -65 83 0
1 65 88 0
1 -65 -52 0
1 -65 154 0
1 65 -153 0
1 65 96 0
1 65 -85 0
1 -143 49 0
1 -143 79 0
1 -143 -152 0
1 143 -155 0
1 -143 88 0
1 -143 156 0
1 -143 -147 0
1 -69 -79 0
1 69 143 0
1 -69 152 0
1 -69 155 0
1 69 145 0
1 -69 -88 0
1 -69 81 0
1 69 -153 0
1 69 147 0
1 -83 80 0
1 83 -74 0
1 83 -43 0
1 -83 65 0
1 83 -82 0
1 83 78 0
1 -83 72 0
1 83 -73 0
1 83 27 0
1 85 64 0
1 -85 150 0
1 85 74 0
1 -85 -73 0
1 85 -23 0
1 85 65 0
1 -85 -82 0
1 85 -78 0
1 -85 72 0
1 85 -45 0
1 -85 -147 0
1 85 27 0
1 -95 64 0
1 95 89 0
1 95 -80 0
1 -95 98 0
1 -95 -87 0
1 95 155 0
1 -95 -84 0
1 -95 -23 0
1 -95 82 0
1 -95 86 0
1 -96 -64 0
1 -96 80 0
1 -96 -150 0
1 96 -87 0
1 96 84 0
1 96 -65 0
1 96 -82 0
1 96 93 0
1 -96 -89 0
1 96 156 0
1 96 -86 0
1 -96 27 0
1 -150 -157 0
1 -150 -106 0
1 150 158 0
1 150 -95 0
1 -150 83 0
1 150 -159 0
1 150 -92 0
1 -150 85 0
1 150 -90 0
1 78 157 0
1 78 94 0
1 78 150 0
1 78 83 0
1 -78 88 0
1 78 -160 0
1 -78 -92 0
1 78 161 0
1 78 96 0
1 -78 -90 0
1 80 157 0
1 80 61 0
1 -80 -152 0
1 80 160 0
1 80 82 0
1 -80 -153 0
1 -80 96 0
1 82 80 0
1 -82 162 0
1 82 -152 0
1 82 -95 0
1 -82 -160 0
1 -82 58 0
1 82 153 0
1 82 -96 0
1 -82 85 0
1 -82 90 0
1 -94 -78 0
1 -94 -101 0
1 94 -152 0
1 -94 -87 0
1 -94 -37 0
1 -94 -92 0
1 94 -86 0
1 94 27 0
1 92 -150 0
1 -92 -87 0
1 -92 -23 0
1 -92 15 0
1 92 -37 0
1 92 86 0
1 -92 27 0
1 106 163 0
1 -106 -39 0
1 106 104 0
1 106 -150 0
1 106 84 0
1 106 -37 0
1 106 159 0
1 106 -78 0
1 106 -89 0
1 -106 86 0
1 -106 -164 0
1 -159 -39 0
1 159 106 0
1 -159 -150 0
1 159 165 0
1 -159 -91 0
1 -159 37 0
1 159 -89 0
1 159 86 0
1 -84 -166 0
1 -84 -106 0
1 -84 94 0
1 84 167 0
1 -84 168 0
1 84 107 0
1 -84 159 0
1 -84 96 0
1 -84 -86 0
1 -86 -166 0
1 86 -112 0
1 -86 169 0
1 86 106 0
1 86 94 0
1 -86 -95 0
1 -86 167 0
1 -86 -92 0
1 86 170 0
1 -87 171 0
1 -87 -106 0
1 -87 89 0
1 87 94 0
1 -87 -74 0
1 87 167 0
1 -87 172 0
1 -87 -159 0
1 -87 92 0
1 87 -96 0
1 -89 157 0
1 89 106 0
1 89 87 0
1 89 167 0
1 89 159 0
1 89 -72 0
1 89 96 0
1 89 173 0
1 -169 97 0
1 -169 -157 0
1 -169 165 0
1 -169 -107 0
1 -169 -37 0
1 -169 164 0
1 107 39 0
1 -107 -169 0
1 107 97 0
1 -107 -47 0
1 107 84 0
1 -107 -165 0
1 -107 -37 0
1 -107 -160 0
1 -107 -34 0
1 107 86 0
1 112 163 0
1 112 -171 0
1 112 -84 0
1 -112 -165 0
1 112 -91 0
1 -112 -103 0
1 -112 -100 0
1 112 -86 0
1 112 -164 0
1 168 -112 0
1 168 174 0
1 -168 -47 0
1 -168 -84 0
1 168 -165 0
1 -168 172 0
1 168 91 0
1 -168 -103 0
1 91 -112 0
1 91 -169 0
1 91 106 0
1 -91 109 0
1 91 15 0
1 91 159 0
1 91 175 0
1 163 -19 0
1 163 112 0
1 -163 169 0
1 163 106 0
1 163 176 0
1 163 177 0
1 163 168 0
1 163 -91 0
1 163 -107 0
1 -163 -159 0
1 -163 -178 0
1 -163 175 0
1 -165 166 0
1 -165 112 0
1 165 -169 0
1 165 106 0
1 165 176 0
1 165 -179 0
1 165 -23 0
1 -165 167 0
1 -165 107 0
1 -165 -178 0
1 165 -164 0
1 -165 180 0
1 -164 -181 0
1 164 -166 0
1 164 169 0
1 -164 -106 0
1 164 -176 0
1 164 -179 0
1 -164 167 0
1 -164 165 0
1 164 -159 0
1 164 178 0
1 -164 -27 0
1 164 180 0
1 110 166 0
1 110 163 0
1 110 174 0
1 110 47 0
1 110 108 0
1 110 91 0
1 110 -182 0
1 110 -103 0
1 -110 -100 0
1 -109 110 0
1 109 163 0
1 -109 174 0
1 109 183 0
1 109 47 0
1 -109 -167 0
1 -109 91 0
1 -109 182 0
1 109 -103 0
1 -109 -100 0
1 -109 -99 0
1 -175 -174 0
1 175 -183 0
1 -175 -177 0
1 -175 -111 0
1 -175 -180 0
1 -177 163 0
1 177 -184 0
1 -177 185 0
1 -177 179 0
1 177 -91 0
1 -177 -182 0
1 177 -103 0
1 177 -111 0
1 -177 175 0
1 -103 110 0
1 -103 -112 0
1 -103 -183 0
1 -103 -186 0
1 103 -34 0
1 103 -187 0
1 103 -188 0
1 103 175 0
1 183 -110 0
1 183 112 0
1 183 -97 0
1 -183 189 0
1 183 190 0
1 -183 191 0
1 183 -186 0
1 183 -177 0
1 183 -109 0
1 183 192 0
1 183 -175 0
1 182 110 0
1 182 174 0
1 -182 190 0
1 -182 -193 0
1 182 37 0
1 -182 -194 0
1 -182 195 0
1 -182 -178 0
1 182 -175 0
1 -174 39 0
1 174 190 0
1 174 176 0
1 -174 -177 0
1 174 -109 0
1 -174 -195 0
1 -174 -196 0
1 -188 -185 0
1 -188 186 0
1 -188 -103 0
1 -188 111 0
1 188 178 0
1 -186 -183 0
1 -186 185 0
1 -186 -176 0
1 186 197 0
1 192 184 0
1 192 -191 0
1 192 -185 0
1 192 103 0
1 -192 111 0
1 192 -197 0
1 -191 -103 0
1 191 192 0
1 197 198 0
1 -197 186 0
1 197 177 0
1 197 199 0
1 197 188 0
1 -197 175 0
1 185 -197 0
1 185 198 0
1 185 108 0
1 -185 200 0
1 -185 186 0
1 185 -175 0
1 -111 -184 0
1 111 -177 0
1 111 199 0
1 111 100 0
1 -111 195 0
1 -111 -201 0
1 -111 -192 0
1 184 -198 0
1 -184 202 0
1 -184 -47 0
1 -184 190 0
1 -184 203 0
1 -184 -191 0
1 184 -186 0
1 184 -177 0
1 -184 -199 0
1 184 -192 0
1 -184 175 0
1 -115 204 0
1 -115 205 0
1 115 116 0
1 -115 -206 0
1 115 53 0
1 116 205 0
1 -116 -55 0
1 -116 -206 0
1 116 -115 0
1 -207 204 0
1 207 -208 0
1 -207 209 0
1 -207 210 0
1 207 -60 0
1 -207 211 0
1 -208 211 0
1 208 206 0
1 208 -210 0
1 -208 -207 0
1 208 -212 0
1 -205 128 0
1 -205 -208 0
1 -205 -129 0
1 205 210 0
1 205 -115 0
1 -210 127 0
1 210 208 0
1 -210 -205 0
1 -210 -129 0
1 -210 -130 0
1 210 -207 0
1 204 -213 0
1 -204 -116 0
1 204 -207 0
1 206 -208 0
1 -206 -115 0
1 130 128 0
1 -130 209 0
1 130 -117 0
1 -130 -71 0
1 130 -210 0
1 -130 211 0
1 -130 212 0
1 -128 66 0
1 128 205 0
1 128 209 0
1 -128 -130 0
1 128 212 0
1 129 -214 0
1 129 215 0
1 129 113 0
1 -129 209 0
1 -129 216 0
1 -129 -217 0
1 129 -117 0
1 129 211 0
1 -129 212 0
1 127 -215 0
1 127 68 0
1 127 -205 0
1 127 217 0
1 127 -117 0
1 127 -129 0
1 127 -211 0
1 127 -212 0
1 -216 -127 0
1 216 -208 0
1 -216 -218 0
1 -216 140 0
1 -216 -129 0
1 -216 -130 0
1 216 207 0
1 -212 219 0
1 212 220 0
1 -212 -122 0
1 -212 127 0
1 212 -208 0
1 -212 216 0
1 212 -218 0
1 -212 -125 0
1 212 129 0
1 -212 -130 0
1 209 208 0
1 -209 -221 0
1 209 207 0
1 211 -208 0
1 -211 218 0
1 211 -130 0
1 -211 207 0
1 -211 -222 0
1 -125 215 0
1 125 122 0
1 125 -114 0
1 -125 216 0
1 125 67 0
1 -125 120 0
1 125 212 0
1 -122 214 0
1 -122 -215 0
1 122 -63 0
1 122 -113 0
1 122 114 0
1 -122 217 0
1 -122 125 0
1 -122 118 0
1 -122 -120 0
1 -140 214 0
1 -140 -215 0
1 140 -142 0
1 140 131 0
1 140 124 0
1 -140 216 0
1 140 81 0
1 140 223 0
1 -140 -212 0
1 -142 -214 0
1 -142 -215 0
1 -142 -132 0
1 -142 -216 0
1 -142 217 0
1 142 -126 0
1 142 123 0
1 142 120 0
1 142 212 0
1 -223 -215 0
1 -223 -224 0
1 223 -137 0
1 -223 -140 0
1 -223 -225 0
1 -223 125 0
1 223 129 0
1 223 226 0
1 -215 -138 0
1 -215 -142 0
1 -215 122 0
1 -215 -127 0
1 215 -137 0
1 215 -129 0
1 215 -226 0
1 -215 -148 0
1 217 -227 0
1 217 214 0
1 217 220 0
1 -217 142 0
1 217 -127 0
1 217 -224 0
1 -217 -228 0
1 -217 218 0
1 217 -229 0
1 -217 129 0
1 -214 220 0
1 -214 -142 0
1 -214 122 0
1 -214 127 0
1 -214 -217 0
1 214 140 0
1 214 -129 0
1 214 226 0
1 137 124 0
1 -137 132 0
1 137 134 0
1 -137 77 0
1 137 218 0
1 -137 126 0
1 137 120 0
1 -137 -136 0
1 138 -220 0
1 -138 -131 0
1 138 -132 0
1 -138 119 0
1 -138 -137 0
1 -138 223 0
1 138 -126 0
1 138 -121 0
1 -146 -124 0
1 -146 -230 0
1 146 -139 0
1 -146 -228 0
1 -146 -223 0
1 146 -126 0
1 146 141 0
1 -146 231 0
1 146 136 0
1 -148 215 0
1 148 230 0
1 -148 134 0
1 148 146 0
1 -148 123 0
1 148 141 0
1 148 136 0
1 148 -90 0
1 123 138 0
1 123 142 0
1 -123 124 0
1 -123 -232 0
1 -123 145 0
1 123 -233 0
1 123 -146 0
1 123 137 0
1 123 140 0
1 -123 148 0
1 124 138 0
1 124 142 0
1 -124 -234 0
1 124 -232 0
1 -124 146 0
1 124 140 0
1 -124 123 0
1 -124 -148 0
1 -126 138 0
1 -126 142 0
1 126 232 0
1 126 -224 0
1 -126 -137 0
1 -126 -140 0
1 -126 -117 0
1 126 235 0
1 126 236 0
1 -131 237 0
1 -131 238 0
1 -131 -224 0
1 131 -146 0
1 131 140 0
1 131 126 0
1 -131 -226 0
1 131 -148 0
1 145 -133 0
1 -145 -143 0
1 -145 -139 0
1 145 224 0
1 -145 69 0
1 -145 123 0
1 -145 -231 0
1 145 -147 0
1 -147 136 0
1 -147 -143 0
1 -147 124 0
1 147 230 0
1 -147 -145 0
1 147 135 0
1 147 -69 0
1 -147 -85 0
1 147 231 0
1 -155 144 0
1 155 143 0
1 -155 124 0
1 155 -230 0
1 155 -95 0
1 155 139 0
1 -155 238 0
1 155 69 0
1 155 -141 0
1 155 -123 0
1 -155 156 0
1 -155 231 0
1 -156 -144 0
1 156 -143 0
1 156 230 0
1 156 155 0
1 156 139 0
1 156 -69 0
1 -156 96 0
1 -156 141 0
1 -156 236 0
1 -156 231 0
1 -156 239 0
1 -231 -152 0
1 -231 -155 0
1 -231 -139 0
1 231 145 0
1 -231 -146 0
1 231 240 0
1 231 241 0
1 -231 156 0
1 -231 121 0
1 139 152 0
1 139 -242 0
1 139 -240 0
1 -139 -156 0
1 139 -231 0
1 139 -147 0
1 -139 148 0
1 141 243 0
1 141 244 0
1 141 232 0
1 -141 -145 0
1 141 -146 0
1 141 240 0
1 -141 -245 0
1 141 235 0
1 141 156 0
1 141 -246 0
1 141 147 0
1 230 244 0
1 230 -132 0
1 -230 232 0
1 -230 -155 0
1 -230 145 0
1 -230 -146 0
1 230 -141 0
1 -230 -240 0
1 230 -245 0
1 230 235 0
1 230 -147 0
1 -230 148 0
1 -152 144 0
1 152 -143 0
1 152 -94 0
1 152 -139 0
1 152 -69 0
1 152 -65 0
1 152 82 0
1 -152 -153 0
1 -152 231 0
1 -152 239 0
1 -153 144 0
1 153 80 0
1 153 152 0
1 153 -139 0
1 153 149 0
1 -153 -65 0
1 153 82 0
1 -153 -235 0
1 -153 -231 0
1 -153 239 0
1 162 -247 0
1 162 -151 0
1 -162 244 0
1 -162 -139 0
1 -162 -149 0
1 162 -248 0
1 162 249 0
1 162 -154 0
1 162 82 0
1 -241 -247 0
1 -241 151 0
1 -241 80 0
1 241 -162 0
1 -241 249 0
1 -241 -159 0
1 -241 231 0
1 144 133 0
1 144 171 0
1 -144 -250 0
1 -144 152 0
1 144 155 0
1 -144 248 0
1 -144 -241 0
1 144 153 0
1 -144 156 0
1 -248 144 0
1 -248 251 0
1 -248 162 0
1 248 -152 0
1 248 -155 0
1 -248 135 0
1 248 -252 0
1 -248 172 0
1 248 253 0
1 -248 160 0
1 248 153 0
1 -239 -254 0
1 -239 -251 0
1 -239 255 0
1 239 -149 0
1 -239 252 0
1 -239 256 0
1 -239 -240 0
1 239 -241 0
1 -239 -153 0
1 -239 156 0
1 149 -251 0
1 -149 -255 0
1 -149 162 0
1 149 152 0
1 149 134 0
1 149 257 0
1 149 252 0
1 149 256 0
1 -149 -240 0
1 149 -153 0
1 149 239 0
1 157 -169 0
1 157 151 0
1 -157 87 0
1 157 -248 0
1 157 -160 0
1 157 154 0
1 -157 78 0
1 -160 144 0
1 160 -157 0
1 160 -151 0
1 -160 -150 0
1 -160 248 0
1 160 -107 0
1 -160 -249 0
1 -160 -82 0
1 160 154 0
1 160 -78 0
1 160 -89 0
1 171 -112 0
1 171 255 0
1 171 -151 0
1 -171 -158 0
1 -171 -249 0
1 -171 154 0
1 171 258 0
1 -171 89 0
1 172 -144 0
1 -172 -151 0
1 -172 87 0
1 172 249 0
1 172 258 0
1 172 89 0
1 -151 64 0
1 151 -162 0
1 -151 -179 0
1 151 -172 0
1 -151 154 0
1 151 -180 0
1 154 -166 0
1 154 151 0
1 154 162 0
1 -154 259 0
1 -154 179 0
1 154 -167 0
1 154 172 0
1 -154 -160 0
1 -154 65 0
1 -154 180 0
1 -247 -260 0
1 247 -251 0
1 247 143 0
1 247 261 0
1 247 262 0
1 -247 252 0
1 -247 -172 0
1 -247 160 0
1 -247 241 0
1 249 -251 0
1 -249 -247 0
1 249 -157 0
1 -249 162 0
1 -249 259 0
1 249 -262 0
1 249 -172 0
1 249 -263 0
1 249 -241 0
1 -166 -110 0
1 -166 -251 0
1 -166 -151 0
1 -166 -264 0
1 -166 158 0
1 -166 -87 0
1 166 -84 0
1 -166 -167 0
1 166 165 0
1 166 -258 0
1 -166 -161 0
1 -166 86 0
1 -167 166 0
1 167 264 0
1 167 -158 0
1 -167 87 0
1 -167 -84 0
1 167 -109 0
1 167 165 0
1 167 154 0
1 167 258 0
1 167 89 0
1 -180 -260 0
1 -180 179 0
1 -180 -165 0
1 180 -154 0
1 180 258 0
1 180 161 0
1 -180 175 0
1 180 164 0
1 179 151 0
1 -179 -158 0
1 179 -180 0
1 179 177 0
1 -179 265 0
1 -179 262 0
1 179 -165 0
1 -179 154 0
1 -179 -258 0
1 179 164 0
1 -158 161 0
1 158 150 0
1 158 -193 0
1 158 -266 0
1 158 176 0
1 158 179 0
1 -158 167 0
1 -158 -172 0
1 158 267 0
1 -158 -196 0
1 -161 268 0
1 161 -193 0
1 161 -158 0
1 -161 -176 0
1 161 172 0
1 161 196 0
1 -161 -178 0
1 -264 166 0
1 264 171 0
1 -264 -80 0
1 -264 -268 0
1 -264 259 0
1 -264 179 0
1 -264 167 0
1 264 172 0
1 264 -269 0
1 -264 -180 0
1 -258 166 0
1 -258 -171 0
1 -258 264 0
1 258 -259 0
1 258 -179 0
1 258 167 0
1 -258 172 0
1 -258 -82 0
1 -258 -267 0
1 -258 269 0
1 178 163 0
1 178 158 0
1 -178 182 0
1 178 -161 0
1 178 -170 0
1 -178 164 0
1 176 -163 0
1 176 -158 0
1 176 -259 0
1 -176 -91 0
1 176 -182 0
1 -176 -170 0
1 -176 -161 0
1 -176 178 0
1 -176 -164 0
1 196 -181 0
1 -196 -174 0
1 -196 -158 0
1 196 270 0
1 -196 265 0
1 196 161 0
1 -196 192 0
1 -196 -269 0
1 193 -191 0
1 -193 -158 0
1 -193 -271 0
1 -193 -272 0
1 193 273 0
1 193 196 0
1 265 -274 0
1 -265 202 0
1 -265 84 0
1 -265 275 0
1 265 178 0
1 265 180 0
1 170 193 0
1 -170 -176 0
1 -170 265 0
1 170 276 0
1 -170 196 0
1 -170 86 0
1 170 180 0
1 -270 268 0
1 270 193 0
1 -270 179 0
1 270 277 0
1 -270 -196 0
1 -270 178 0
1 -270 180 0
1 173 278 0
1 173 -268 0
1 173 193 0
1 173 -176 0
1 173 -277 0
1 173 -89 0
1 -173 -178 0
1 173 -180 0
1 195 174 0
1 -195 184 0
1 195 190 0
1 -195 265 0
1 195 272 0
1 195 182 0
1 195 -111 0
1 195 -267 0
1 -195 -170 0
1 190 -184 0
1 -190 -268 0
1 -190 272 0
1 -190 273 0
1 -190 -182 0
1 190 -103 0
1 -190 195 0
1 190 -170 0
1 -276 181 0
1 -276 -279 0
1 -276 189 0
1 276 184 0
1 -276 265 0
1 276 273 0
1 276 -187 0
1 -202 181 0
1 -202 279 0
1 202 -280 0
1 -202 -278 0
1 202 189 0
1 202 273 0
1 202 -276 0
1 273 279 0
1 273 -198 0
1 273 -202 0
1 -273 -281 0
1 -273 282 0
1 -273 91 0
1 273 199 0
1 -273 -195 0
1 -273 196 0
1 279 -283 0
1 -279 163 0
1 -279 -202 0
1 279 190 0
1 279 -193 0
1 -279 -273 0
1 279 -199 0
1 279 -276 0
1 279 -196 0
1 272 -283 0
1 272 284 0
1 272 -274 0
1 272 202 0
1 272 281 0
1 -272 285 0
1 -272 276 0
1 272 195 0
1 272 -196 0
1 181 -274 0
1 -181 202 0
1 -181 193 0
1 181 281 0
1 -181 285 0
1 -181 195 0
1 181 196 0
1 181 -164 0
1 -199 198 0
1 199 -189 0
1 -199 -184 0
1 199 273 0
1 199 187 0
1 -199 -111 0
1 -199 197 0
1 -198 279 0
1 198 274 0
1 -198 280 0
1 -198 -189 0
1 -198 184 0
1 198 -185 0
1 198 -273 0
1 198 -194 0
1 198 187 0
1 198 197 0
1 -282 -279 0
1 -282 189 0
1 -282 200 0
1 282 285 0
1 -282 273 0
1 282 -194 0
1 -282 -187 0
1 282 -286 0
1 287 284 0
1 -287 -279 0
1 -287 203 0
1 -287 200 0
1 287 -282 0
1 -287 273 0
1 -287 194 0
1 287 187 0
1 187 287 0
1 187 202 0
1 187 276 0
1 187 -103 0
1 -187 288 0
1 -189 -287 0
1 189 198 0
1 189 -202 0
1 189 289 0
1 189 282 0
1 189 199 0
1 189 276 0
1 -189 -290 0
1 -194 -283 0
1 -194 202 0
1 -194 199 0
1 194 276 0
1 -194 291 0
1 -280 283 0
1 -280 -287 0
1 -280 -174 0
1 280 -281 0
1 280 -282 0
1 -280 -291 0
1 -292 -189 0
1 292 200 0
1 292 281 0
1 292 -290 0
1 -292 -187 0
1 290 283 0
1 -290 189 0
1 -290 203 0
1 -290 -200 0
1 290 187 0
1 -290 201 0
1 289 200 0
1 289 -187 0
1 -288 -203 0
1 -288 -200 0
1 288 -187 0
1 -288 -201 0
1 -286 -289 0
1 286 -282 0
1 -286 -197 0
1 286 -288 0
1 200 -287 0
1 -200 289 0
1 -200 -292 0
1 -200 -282 0
1 -200 288 0
1 -200 290 0
1 201 287 0
1 201 203 0
1 -201 -111 0
1 -201 -288 0
1 -201 -290 0
1 -203 287 0
1 203 -184 0
1 -203 289 0
1 203 282 0
1 203 288 0
1 203 290 0
1 218 220 0
1 -218 -213 0
1 -218 209 0
1 218 137 0
1 -218 217 0
1 218 293 0
1 218 294 0
1 -218 -211 0
1 -218 -212 0
1 220 -138 0
1 220 -295 0
1 -220 -209 0
1 -220 217 0
1 220 218 0
1 220 -293 0
1 -220 294 0
1 220 -211 0
1 228 214 0
1 228 -219 0
1 -228 296 0
1 228 293 0
1 228 294 0
1 228 222 0
1 227 219 0
1 227 213 0
1 -227 -295 0
1 -227 221 0
1 227 228 0
1 227 -217 0
1 -227 -296 0
1 -227 293 0
1 -227 294 0
1 -227 148 0
1 -295 -227 0
1 -295 -220 0
1 -295 205 0
1 -295 224 0
1 295 -228 0
1 -295 -226 0
1 -295 294 0
1 294 220 0
1 294 238 0
1 294 295 0
1 -294 224 0
1 -294 -228 0
1 294 -218 0
1 -294 -210 0
1 294 236 0
1 294 -297 0
1 -294 226 0
1 213 -220 0
1 213 204 0
1 213 -298 0
1 -213 228 0
1 293 -220 0
1 293 213 0
1 -293 228 0
1 -293 218 0
1 293 206 0
1 224 -219 0
1 -224 -215 0
1 224 -131 0
1 224 -295 0
1 224 -145 0
1 -224 221 0
1 224 223 0
1 -224 226 0
1 226 219 0
1 -226 -131 0
1 226 224 0
1 226 -221 0
1 -226 296 0
1 226 217 0
1 -226 223 0
1 -226 -147 0
1 -238 -219 0
1 -238 -299 0
1 -238 131 0
1 238 -155 0
1 238 -296 0
1 -238 -225 0
1 238 -126 0
1 -238 236 0
1 238 294 0
1 -236 300 0
1 -236 -131 0
1 236 -295 0
1 -236 -221 0
1 -236 225 0
1 236 126 0
1 -236 -294 0
1 236 -222 0
1 -296 -219 0
1 296 -244 0
1 -296 232 0
1 -296 -224 0
1 -296 -216 0
1 296 -301 0
1 -296 -302 0
1 -296 -245 0
1 296 236 0
1 -296 -226 0
1 -219 227 0
1 219 303 0
1 219 238 0
1 219 -228 0
1 -219 -296 0
1 219 302 0
1 -219 245 0
1 219 235 0
1 219 -226 0
1 -219 -212 0
1 -221 -227 0
1 221 222 0
1 -221 -238 0
1 -221 -224 0
1 -221 302 0
1 221 -236 0
1 221 -226 0
1 222 -227 0
1 222 303 0
1 -222 224 0
1 222 302 0
1 222 236 0
1 -222 -226 0
1 222 304 0
1 -232 -219 0
1 232 -299 0
1 -232 -131 0
1 232 -230 0
1 232 -296 0
1 232 -225 0
1 -232 -126 0
1 232 -123 0
1 -232 235 0
1 232 141 0
1 -235 219 0
1 235 230 0
1 235 296 0
1 235 -229 0
1 -235 -225 0
1 -235 126 0
1 235 153 0
1 244 219 0
1 244 -300 0
1 -244 -237 0
1 -244 296 0
1 -244 229 0
1 -244 225 0
1 -244 245 0
1 244 141 0
1 245 -219 0
1 -245 -300 0
1 -245 -299 0
1 245 244 0
1 -245 234 0
1 -245 -296 0
1 245 -229 0
1 245 -141 0
1 225 -232 0
1 225 -305 0
1 -225 223 0
1 225 -240 0
1 -225 -306 0
1 225 245 0
1 225 235 0
1 -225 -236 0
1 299 -307 0
1 -299 -255 0
1 -299 -215 0
1 -299 243 0
1 299 -244 0
1 299 256 0
1 299 -240 0
1 299 225 0
1 299 -235 0
1 -299 -236 0
1 -229 -300 0
1 -229 308 0
1 -229 -303 0
1 -229 244 0
1 229 -232 0
1 229 305 0
1 229 309 0
1 229 -310 0
1 -229 245 0
1 229 -235 0
1 300 -214 0
1 300 307 0
1 -300 244 0
1 -300 -238 0
1 300 -305 0
1 -300 229 0
1 -300 -236 0
1 -243 -299 0
1 -243 -237 0
1 -243 234 0
1 243 -139 0
1 -243 149 0
1 243 240 0
1 243 -311 0
1 -243 231 0
1 -243 239 0
1 -240 299 0
1 240 -234 0
1 240 139 0
1 240 149 0
1 -240 160 0
1 240 302 0
1 -240 -311 0
1 -240 233 0
1 -240 239 0
1 255 -171 0
1 -255 237 0
1 255 -234 0
1 255 -256 0
1 255 -225 0
1 255 -311 0
1 -255 233 0
1 -255 246 0
1 -255 312 0
1 255 -239 0
1 -256 -237 0
1 -256 -234 0
1 -256 -313 0
1 256 242 0
1 256 149 0
1 -256 -172 0
1 -256 -309 0
1 -256 225 0
1 -256 -311 0
1 256 233 0
1 256 -246 0
1 256 -312 0
1 -256 239 0
1 -233 260 0
1 233 251 0
1 233 -244 0
1 233 234 0
1 233 262 0
1 -233 -240 0
1 233 245 0
1 233 -123 0
1 233 -314 0
1 233 -315 0
1 234 -251 0
1 -234 -255 0
1 234 -124 0
1 234 -316 0
1 -234 252 0
1 234 256 0
1 -234 -245 0
1 234 -233 0
1 234 -315 0
1 311 -317 0
1 -311 -307 0
1 -311 255 0
1 311 237 0
1 -311 244 0
1 -311 -318 0
1 -311 256 0
1 311 -126 0
1 -311 -245 0
1 -311 319 0
1 311 315 0
1 -237 -307 0
1 -237 255 0
1 -237 243 0
1 237 -131 0
1 237 244 0
1 237 -320 0
1 237 256 0
1 -237 -245 0
1 -251 -166 0
1 -251 307 0
1 -251 -247 0
1 -251 234 0
1 251 242 0
1 -251 -149 0
1 251 -249 0
1 251 -312 0
1 252 144 0
1 -252 -251 0
1 -252 -313 0
1 -252 -242 0
1 -252 -149 0
1 -252 167 0
1 -252 248 0
1 252 -305 0
1 252 -249 0
1 -252 -233 0
1 252 -246 0
1 252 -312 0
1 252 239 0
1 -260 250 0
1 260 -234 0
1 -260 313 0
1 260 -242 0
1 -260 -262 0
1 260 257 0
1 260 253 0
1 260 -249 0
1 -260 233 0
1 -260 246 0
1 260 -312 0
1 260 180 0
1 262 260 0
1 -262 254 0
1 262 247 0
1 -262 -234 0
1 -262 242 0
1 -262 179 0
1 262 -257 0
1 -262 -233 0
1 262 246 0
1 312 251 0
1 -312 259 0
1 312 256 0
1 -312 321 0
1 312 269 0
1 -312 -231 0
1 -312 -322 0
1 242 -260 0
1 -242 255 0
1 -242 323 0
1 -242 271 0
1 242 -139 0
1 242 -259 0
1 -242 -262 0
1 242 -252 0
1 -242 -269 0
1 -242 312 0
1 246 251 0
1 -246 255 0
1 246 -323 0
1 246 313 0
1 246 252 0
1 246 -256 0
1 -246 324 0
1 -246 -315 0
1 -313 -260 0
1 -313 -230 0
1 313 -256 0
1 313 321 0
1 -313 -246 0
1 -259 -254 0
1 259 -250 0
1 -259 247 0
1 259 151 0
1 -259 176 0
1 -259 -325 0
1 -259 257 0
1 -259 -253 0
1 -259 249 0
1 -259 -154 0
1 -259 312 0
1 269 -250 0
1 269 261 0
1 269 326 0
1 -269 -264 0
1 269 -271 0
1 -269 242 0
1 269 257 0
1 269 253 0
1 269 -263 0
1 269 258 0
1 -269 -196 0
1 -269 324 0
1 -269 -312 0
1 -271 -254 0
1 271 -250 0
1 271 261 0
1 271 326 0
1 271 -193 0
1 -271 -327 0
1 -271 -253 0
1 -271 -258 0
1 271 269 0
1 250 -144 0
1 -250 -328 0
1 250 -278 0
1 -250 -268 0
1 -250 -271 0
1 250 -259 0
1 -250 -329 0
1 250 277 0
1 -250 -267 0
1 250 269 0
1 253 -260 0
1 253 -250 0
1 -253 278 0
1 -253 -268 0
1 -253 259 0
1 -253 262 0
1 253 248 0
1 -253 -330 0
1 253 -277 0
1 -253 267 0
1 253 269 0
1 -254 331 0
1 254 332 0
1 254 323 0
1 -254 -259 0
1 -254 -262 0
1 254 333 0
1 -254 321 0
1 257 254 0
1 257 -271 0
1 257 -149 0
1 -257 -262 0
1 257 334 0
1 -257 329 0
1 -257 -333 0
1 -257 321 0
1 257 269 0
1 267 -250 0
1 -267 326 0
1 -267 264 0
1 267 -270 0
1 267 161 0
1 268 -161 0
1 -268 -190 0
1 -268 -158 0
1 -268 270 0
1 268 -253 0
1 -268 -335 0
1 268 258 0
1 277 -261 0
1 277 -278 0
1 277 270 0
1 -277 263 0
1 -277 -335 0
1 -277 333 0
1 277 -336 0
1 278 -261 0
1 278 -326 0
1 278 -337 0
1 278 -266 0
1 -278 270 0
1 278 -253 0
1 -278 277 0
1 278 336 0
1 -278 338 0
1 -326 339 0
1 326 -278 0
1 -326 151 0
1 -326 -268 0
1 -326 -267 0
1 -326 -269 0
1 335 -339 0
1 335 284 0
1 -335 274 0
1 335 326 0
1 -335 268 0
1 335 271 0
1 335 340 0
1 -335 275 0
1 -335 -154 0
1 -335 277 0
1 335 267 0
1 261 339 0
1 -261 -341 0
1 -261 -247 0
1 -261 -332 0
1 -261 278 0
1 -261 268 0
1 -261 340 0
1 -261 -263 0
1 261 277 0
1 -261 -269 0
1 263 339 0
1 -263 -341 0
1 263 332 0
1 263 -278 0
1 263 261 0
1 263 268 0
1 -263 249 0
1 -263 329 0
1 263 -277 0
1 -275 -181 0
1 -275 265 0
1 275 199 0
1 275 -336 0
1 -275 338 0
1 -275 -173 0
1 -275 170 0
1 -274 181 0
1 274 266 0
1 274 270 0
1 274 272 0
1 -274 -275 0
1 -274 -336 0
1 274 -173 0
1 -285 -181 0
1 285 326 0
1 -285 266 0
1 -285 -342 0
1 285 -282 0
1 -285 343 0
1 285 -335 0
1 -285 336 0
1 -285 -338 0
1 -285 -344 0
1 -285 345 0
1 -284 -181 0
1 284 287 0
1 -284 -341 0
1 284 -326 0
1 -284 -337 0
1 284 266 0
1 284 -342 0
1 -284 -346 0
1 -284 -285 0
1 284 338 0
1 -284 -345 0
1 266 -283 0
1 266 -284 0
1 266 274 0
1 266 278 0
1 266 -158 0
1 266 347 0
1 266 -281 0
1 -266 -285 0
1 -266 -275 0
1 266 -338 0
1 -266 291 0
1 -338 283 0
1 -338 -284 0
1 -338 274 0
1 -338 278 0
1 338 281 0
1 338 277 0
1 338 161 0
1 -338 291 0
1 337 284 0
1 337 278 0
1 -337 348 0
1 -337 -340 0
1 -337 336 0
1 -337 -349 0
1 336 339 0
1 -336 274 0
1 336 337 0
1 -336 348 0
1 -336 340 0
1 336 -277 0
1 -336 -258 0
1 -281 283 0
1 281 -266 0
1 -281 342 0
1 281 -346 0
1 281 340 0
1 -281 -273 0
1 -281 194 0
1 -281 338 0
1 -281 344 0
1 281 345 0
1 283 -181 0
1 283 -339 0
1 -283 -279 0
1 283 -280 0
1 -283 -266 0
1 283 281 0
1 283 -272 0
1 283 -273 0
1 283 194 0
1 283 344 0
1 -283 -345 0
1 -283 290 0
1 -347 266 0
1 -347 342 0
1 347 -289 0
1 347 -346 0
1 -347 348 0
1 347 194 0
1 -347 345 0
1 291 -280 0
1 -291 -347 0
1 -291 338 0
1 -291 344 0
1 -291 -349 0
1 346 -284 0
1 346 265 0
1 -346 281 0
1 -346 285 0
1 346 345 0
1 -346 291 0
1 345 -284 0
1 345 -281 0
1 342 -270 0
1 342 -347 0
1 -342 -281 0
1 -342 -344 0
1 -342 285 0
1 -344 283 0
1 -344 284 0
1 -344 -347 0
1 344 -281 0
1 -344 285 0
1 -303 -219 0
1 303 300 0
1 -303 -350 0
1 -303 -221 0
1 303 296 0
1 -303 -297 0
1 303 222 0
1 -302 -303 0
1 302 -221 0
1 302 -296 0
1 -302 297 0
1 302 222 0
1 308 -351 0
1 308 -300 0
1 308 255 0
1 308 298 0
1 -308 350 0
1 -308 -229 0
1 -308 -309 0
1 -308 -304 0
1 309 -300 0
1 -309 308 0
1 309 -298 0
1 309 -352 0
1 309 229 0
1 -309 353 0
1 -350 -317 0
1 350 -318 0
1 350 -354 0
1 -350 305 0
1 -350 -302 0
1 -297 -317 0
1 -297 308 0
1 -297 -303 0
1 297 -305 0
1 297 294 0
1 297 355 0
1 -298 -303 0
1 -298 -213 0
1 298 302 0
1 -298 353 0
1 353 308 0
1 353 -298 0
1 -353 -309 0
1 353 -302 0
1 307 -351 0
1 -307 251 0
1 307 300 0
1 307 299 0
1 307 -237 0
1 307 -350 0
1 307 305 0
1 307 229 0
1 307 -225 0
1 -307 -304 0
1 305 -351 0
1 -305 -300 0
1 -305 352 0
1 305 -252 0
1 -305 301 0
1 305 229 0
1 305 225 0
1 305 -311 0
1 -305 -297 0
1 -305 -304 0
1 317 -356 0
1 -317 237 0
1 -317 350 0
1 -317 318 0
1 -317 -310 0
1 -317 -306 0
1 -317 304 0
1 -318 -317 0
1 318 -350 0
1 318 352 0
1 318 -310 0
1 318 -311 0
1 318 297 0
1 301 317 0
1 301 327 0
1 -301 296 0
1 -301 -357 0
1 -301 -315 0
1 -351 -219 0
1 -351 -317 0
1 351 -358 0
1 -351 308 0
1 351 359 0
1 -351 325 0
1 -351 -305 0
1 351 -301 0
1 351 309 0
1 -351 -360 0
1 352 -307 0
1 352 -308 0
1 352 318 0
1 352 305 0
1 -352 361 0
1 352 309 0
1 -352 -360 0
1 -304 -317 0
1 304 362 0
1 -304 307 0
1 -304 -222 0
1 304 -318 0
1 304 -352 0
1 304 -305 0
1 -315 -351 0
1 -315 356 0
1 -315 363 0
1 -315 -313 0
1 315 301 0
1 -315 306 0
1 -315 -311 0
1 315 233 0
1 -315 -246 0
1 325 363 0
1 -325 234 0
1 -325 -313 0
1 -325 301 0
1 -325 306 0
1 325 311 0
1 -325 -233 0
1 -325 -246 0
1 -325 -315 0
1 -324 -351 0
1 324 -356 0
1 -324 -316 0
1 -324 327 0
1 -324 301 0
1 324 310 0
1 -324 306 0
1 -324 -319 0
1 324 246 0
1 -324 269 0
1 -327 316 0
1 -327 -313 0
1 327 -271 0
1 327 -310 0
1 -327 306 0
1 -327 319 0
1 -327 -246 0
1 -306 317 0
1 -306 -364 0
1 -306 -363 0
1 -306 327 0
1 306 -365 0
1 -306 333 0
1 -306 321 0
1 -306 315 0
1 -363 -299 0
1 363 366 0
1 363 -367 0
1 -363 -323 0
1 -363 -327 0
1 -363 325 0
1 -363 365 0
1 -363 -321 0
1 -363 324 0
1 310 -327 0
1 -310 -318 0
1 -310 229 0
1 310 -368 0
1 -310 -365 0
1 -310 369 0
1 310 360 0
1 310 324 0
1 310 -315 0
1 -356 -370 0
1 356 -371 0
1 -356 325 0
1 -356 -318 0
1 356 310 0
1 356 365 0
1 356 369 0
1 -356 -360 0
1 321 -323 0
1 -321 -316 0
1 -321 -313 0
1 321 319 0
1 321 257 0
1 -321 306 0
1 321 -267 0
1 321 -246 0
1 323 254 0
1 323 363 0
1 323 320 0
1 -323 359 0
1 323 313 0
1 -323 -316 0
1 323 -257 0
1 -323 321 0
1 -323 314 0
1 -323 -312 0
1 -333 -254 0
1 -333 -363 0
1 -333 366 0
1 -333 320 0
1 333 -316 0
1 -333 319 0
1 333 -372 0
1 -333 277 0
1 333 314 0
1 -333 -373 0
1 -366 -363 0
1 366 -371 0
1 -366 320 0
1 -366 316 0
1 366 374 0
1 -366 372 0
1 366 257 0
1 -366 306 0
1 366 319 0
1 366 -314 0
1 366 322 0
1 314 -341 0
1 314 -332 0
1 -314 -366 0
1 -314 -323 0
1 314 327 0
1 -314 333 0
1 -316 -375 0
1 -316 -332 0
1 316 -366 0
1 316 -327 0
1 -316 -376 0
1 316 343 0
1 316 -333 0
1 316 321 0
1 316 -314 0
1 319 -366 0
1 319 -311 0
1 -319 -327 0
1 -319 -377 0
1 319 -365 0
1 -319 321 0
1 320 375 0
1 -320 -378 0
1 -320 379 0
1 320 366 0
1 -320 -237 0
1 320 327 0
1 320 -376 0
1 -320 365 0
1 -320 -333 0
1 320 -321 0
1 -320 -324 0
1 -329 -254 0
1 -329 -250 0
1 329 374 0
1 -329 372 0
1 329 -257 0
1 -329 275 0
1 -329 365 0
1 -329 -314 0
1 329 -373 0
1 329 -322 0
1 -332 250 0
1 -332 -379 0
1 332 -374 0
1 332 372 0
1 332 -257 0
1 332 -329 0
1 332 -314 0
1 -332 373 0
1 332 322 0
1 343 261 0
1 -343 -334 0
1 -343 -330 0
1 343 -285 0
1 -343 377 0
1 343 314 0
1 343 373 0
1 341 -331 0
1 -341 284 0
1 341 316 0
1 341 374 0
1 -341 372 0
1 -341 334 0
1 341 -330 0
1 341 -373 0
1 322 -341 0
1 -322 332 0
1 -322 -366 0
1 322 -372 0
1 -322 -329 0
1 322 -312 0
1 322 -349 0
1 -372 -339 0
1 -372 341 0
1 -372 332 0
1 -372 -322 0
1 -372 -366 0
1 -372 242 0
1 372 348 0
1 -372 -343 0
1 372 333 0
1 -373 -341 0
1 -373 332 0
1 373 366 0
1 373 374 0
1 373 -380 0
1 -373 376 0
1 373 343 0
1 -373 -333 0
1 373 -246 0
1 374 332 0
1 374 380 0
1 -374 373 0
1 374 329 0
1 374 333 0
1 -340 -331 0
1 340 -261 0
1 340 -337 0
1 340 -372 0
1 -340 -334 0
1 -340 376 0
1 -340 335 0
1 -340 -336 0
1 -340 322 0
1 -339 331 0
1 -339 -328 0
1 -339 -261 0
1 -339 -326 0
1 339 -372 0
1 -339 334 0
1 339 -336 0
1 -339 322 0
1 348 328 0
1 348 -337 0
1 348 -347 0
1 -348 334 0
1 -348 380 0
1 -348 336 0
1 348 -349 0
1 -349 -381 0
1 349 331 0
1 349 -334 0
1 -349 -330 0
1 349 -291 0
1 349 -322 0
1 328 339 0
1 328 -341 0
1 328 348 0
1 330 -339 0
1 -330 328 0
1 330 -253 0
1 -330 -340 0
1 -330 349 0
1 331 -339 0
1 331 -348 0
1 -331 340 0
1 334 339 0
1 -334 -331 0
1 -334 341 0
1 334 348 0
1 334 -343 0
1 360 382 0
1 -360 351 0
1 360 -356 0
1 -360 -359 0
1 360 383 0
1 -360 354 0
1 360 -301 0
1 360 310 0
1 -360 321 0
1 -360 -304 0
1 -359 -351 0
1 359 -356 0
1 -359 -354 0
1 -359 -352 0
1 -359 301 0
1 359 -310 0
1 359 360 0
1 -359 -382 0
1 -359 -304 0
1 -369 362 0
1 369 356 0
1 369 -354 0
1 369 357 0
1 -369 -310 0
1 -369 382 0
1 371 383 0
1 -371 -361 0
1 371 -357 0
1 -371 -369 0
1 371 -382 0
1 -354 -378 0
1 -354 379 0
1 354 355 0
1 354 -359 0
1 354 -350 0
1 -354 -377 0
1 -354 365 0
1 -354 -369 0
1 -355 379 0
1 355 -359 0
1 -355 -354 0
1 -355 377 0
1 355 -365 0
1 355 -369 0
1 355 360 0
1 355 -297 0
1 -383 371 0
1 -383 298 0
1 -383 360 0
1 -382 371 0
1 382 353 0
1 382 -383 0
1 -382 -369 0
1 365 362 0
1 365 -358 0
1 365 363 0
1 -365 354 0
1 -365 361 0
1 365 310 0
1 -365 329 0
1 365 -355 0
1 379 362 0
1 379 358 0
1 379 -356 0
1 -379 363 0
1 -379 -320 0
1 379 361 0
1 -379 357 0
1 379 310 0
1 -379 -365 0
1 379 -319 0
1 -379 -355 0
1 -377 370 0
1 -377 -320 0
1 -377 368 0
1 377 364 0
1 -378 358 0
1 378 341 0
1 -378 370 0
1 378 367 0
1 -378 320 0
1 378 354 0
1 378 -361 0
1 -378 -357 0
1 378 364 0
1 378 -355 0
1 -357 381 0
1 -357 -358 0
1 -357 378 0
1 357 -371 0
1 -357 -301 0
1 -357 365 0
1 357 -369 0
1 -358 -351 0
1 358 375 0
1 -358 -378 0
1 -358 371 0
1 358 -376 0
1 358 357 0
1 -358 377 0
1 -358 365 0
1 -361 378 0
1 361 379 0
1 361 -352 0
1 -361 377 0
1 -361 365 0
1 -362 371 0
1 -362 -361 0
1 -376 -375 0
1 376 -316 0
1 -376 -357 0
1 -376 364 0
1 -376 314 0
1 375 -339 0
1 375 -367 0
1 -375 376 0
1 375 357 0
1 -375 368 0
1 375 -373 0
1 380 358 0
1 -380 -367 0
1 380 348 0
1 -380 368 0
1 -380 373 0
1 -381 -358 0
1 -381 -367 0
1 -381 -357 0
1 -381 368 0
1 -381 -364 0
1 381 -373 0
1 381 -349 0
1 364 -381 0
1 364 375 0
1 -364 -378 0
1 -364 367 0
1 -364 -380 0
1 364 -376 0
1 367 381 0
1 -367 -375 0
1 -367 -377 0
1 368 -375 0
1 368 -378 0
1 -368 380 0
1 -368 376 0
1 368 377 0
1 -370 381 0
1 -370 375 0
1 -370 -356 0
1 370 -378 0
1 370 380 0
1 370 -376 0
